
Gurobi 8.1.1 (win64) logging started 07/05/20 21:54:57

Changed value of parameter LogFile to Results/sslp1_30_70_200_BendersBnC.log
   Prev: gurobi.log  Default: 
Changed value of parameter Heuristics to 0.0
   Prev: 0.05  Min: 0.0  Max: 1.0  Default: 0.05
Changed value of parameter lazyConstraints to 1
   Prev: 0  Min: 0  Max: 1  Default: 0
Changed value of parameter timeLimit to 7182.974553346634
   Prev: 1e+100  Min: 0.0  Max: 1e+100  Default: 1e+100
Optimize a model with 2597 rows, 230 columns and 43716 nonzeros
Variable types: 200 continuous, 30 integer (30 binary)
Coefficient statistics:
  Matrix range     [3e-13, 1e+06]
  Objective range  [5e-03, 8e+01]
  Bounds range     [1e+00, 1e+00]
  RHS range        [1e-13, 2e+04]
Warning: Model contains large matrix coefficient range
         Consider reformulating model or setting NumericFocus parameter
         to avoid numerical issues.
Presolve removed 262 rows and 0 columns
Presolve time: 0.03s
Presolved: 2335 rows, 230 columns, 42382 nonzeros
Variable types: 200 continuous, 30 integer (30 binary)

Root relaxation: objective -8.017339e+02, 250 iterations, 0.04 seconds

    Nodes    |    Current Node    |     Objective Bounds      |     Work
 Expl Unexpl |  Obj  Depth IntInf | Incumbent    BestBd   Gap | It/Node Time

     0     0 -801.73385    0   14          - -801.73385      -     -    0s
     0     0 -801.50482    0   14          - -801.50482      -     -    0s
     0     0 -801.29885    0   14          - -801.29885      -     -    0s
     0     0 -801.11483    0   14          - -801.11483      -     -    0s
     0     0 -800.99723    0   13          - -800.99723      -     -    0s
     0     0 -800.90390    0   13          - -800.90390      -     -    0s
     0     0 -800.83348    0   13          - -800.83348      -     -    0s
     0     0 -800.75407    0   14          - -800.75407      -     -    0s
     0     0 -800.70408    0   14          - -800.70408      -     -    0s
     0     0 -800.64054    0   14          - -800.64054      -     -    0s
     0     0 -800.56478    0   14          - -800.56478      -     -    0s
     0     0 -800.48327    0   13          - -800.48327      -     -    0s
     0     0 -800.43679    0   14          - -800.43679      -     -    0s
     0     0 -800.38530    0   13          - -800.38530      -     -    0s
     0     0 -800.34060    0   13          - -800.34060      -     -    0s
     0     0 -800.30127    0   14          - -800.30127      -     -    0s
     0     0 -800.24642    0   12          - -800.24642      -     -    0s
     0     0 -800.18761    0   13          - -800.18761      -     -    0s
     0     0 -800.11505    0   13          - -800.11505      -     -    0s
     0     0 -800.04830    0   12          - -800.04830      -     -    0s
     0     0 -799.99867    0   13          - -799.99867      -     -    0s
     0     0 -799.94520    0   12          - -799.94520      -     -    0s
     0     0 -799.92491    0   13          - -799.92491      -     -    0s
     0     0 -799.89670    0   13          - -799.89670      -     -    0s
     0     0 -799.85100    0   12          - -799.85100      -     -    0s
     0     0 -799.82505    0   12          - -799.82505      -     -    0s
     0     0 -799.79111    0   12          - -799.79111      -     -    0s
     0     0 -799.76291    0   12          - -799.76291      -     -    0s
     0     0 -799.71874    0   12          - -799.71874      -     -    0s
     0     0 -799.68637    0   13          - -799.68637      -     -    0s
     0     0 -799.64194    0   13          - -799.64194      -     -    0s
     0     0 -799.57293    0   12          - -799.57293      -     -    0s
     0     0 -799.55045    0   12          - -799.55045      -     -    0s
     0     0 -799.51565    0   11          - -799.51565      -     -    0s
     0     0 -799.46918    0   11          - -799.46918      -     -    0s
     0     0 -799.44025    0   12          - -799.44025      -     -    0s
     0     0 -799.41086    0   12          - -799.41086      -     -    0s
     0     0 -799.37714    0   12          - -799.37714      -     -    0s
     0     0 -799.31564    0   12          - -799.31564      -     -    0s
     0     0 -799.29412    0   12          - -799.29412      -     -    0s
     0     0 -799.28059    0   12          - -799.28059      -     -    0s
     0     0 -799.23773    0   12          - -799.23773      -     -    0s
     0     0 -799.19430    0   12          - -799.19430      -     -    0s
     0     0 -799.16348    0   11          - -799.16348      -     -    0s
     0     0 -799.14514    0   12          - -799.14514      -     -    0s
     0     0 -799.11399    0   12          - -799.11399      -     -    0s
     0     0 -799.08028    0   11          - -799.08028      -     -    0s
     0     0 -799.03893    0   11          - -799.03893      -     -    0s
     0     0 -798.98770    0   11          - -798.98770      -     -    0s
     0     0 -798.92988    0   12          - -798.92988      -     -    0s
     0     0 -798.88244    0   12          - -798.88244      -     -    0s
     0     0 -798.85556    0   12          - -798.85556      -     -    0s
     0     0 -798.83894    0   12          - -798.83894      -     -    0s
     0     0 -798.81692    0   12          - -798.81692      -     -    0s
     0     0 -798.78571    0   12          - -798.78571      -     -    0s
     0     0 -798.75982    0   12          - -798.75982      -     -    0s
     0     0 -798.71937    0   12          - -798.71937      -     -    0s
     0     0 -798.69378    0   12          - -798.69378      -     -    0s
     0     0 -798.65161    0   10          - -798.65161      -     -    0s
     0     0 -798.61185    0   11          - -798.61185      -     -    0s
     0     0 -798.56270    0   11          - -798.56270      -     -    0s
     0     0 -798.52550    0   10          - -798.52550      -     -    0s
     0     0 -798.48425    0   12          - -798.48425      -     -    0s
     0     0 -798.41947    0   11          - -798.41947      -     -    0s
     0     0 -798.37336    0   12          - -798.37336      -     -    0s
     0     0 -798.32748    0   12          - -798.32748      -     -    0s
     0     0 -798.29859    0   11          - -798.29859      -     -    0s
     0     0 -798.25630    0   12          - -798.25630      -     -    0s
     0     0 -798.20908    0   11          - -798.20908      -     -    0s
     0     0 -798.19069    0   11          - -798.19069      -     -    0s
     0     0 -798.17162    0   11          - -798.17162      -     -    0s
     0     0 -798.13614    0   11          - -798.13614      -     -    0s
     0     0 -798.09641    0   12          - -798.09641      -     -    0s
     0     0 -798.04874    0   11          - -798.04874      -     -    0s
     0     0 -798.01759    0   11          - -798.01759      -     -    0s
     0     0 -798.00113    0   10          - -798.00113      -     -    0s
     0     0 -797.98365    0   10          - -797.98365      -     -    0s
     0     0 -797.96819    0   10          - -797.96819      -     -    0s
     0     0 -797.93996    0   10          - -797.93996      -     -    0s
     0     0 -797.91420    0    9          - -797.91420      -     -    0s
     0     0 -797.87764    0    9          - -797.87764      -     -    0s
     0     0 -797.85372    0   10          - -797.85372      -     -    0s
     0     0 -797.83318    0    9          - -797.83318      -     -    0s
     0     0 -797.81607    0   10          - -797.81607      -     -    0s
     0     0 -797.80620    0   11          - -797.80620      -     -    0s
     0     0 -797.78756    0   11          - -797.78756      -     -    0s
     0     0 -797.76207    0   11          - -797.76207      -     -    0s
     0     0 -797.73324    0   12          - -797.73324      -     -    0s
     0     0 -797.68402    0   12          - -797.68402      -     -    0s
     0     0 -797.64382    0   12          - -797.64382      -     -    0s
     0     0 -797.60420    0   10          - -797.60420      -     -    0s
     0     0 -797.59122    0   11          - -797.59122      -     -    0s
     0     0 -797.56387    0   12          - -797.56387      -     -    0s
     0     0 -797.55423    0   12          - -797.55423      -     -    0s
     0     0 -797.53621    0   11          - -797.53621      -     -    0s
     0     0 -797.50236    0   10          - -797.50236      -     -    0s
     0     0 -797.48827    0    9          - -797.48827      -     -    0s
     0     0 -797.47189    0    9          - -797.47189      -     -    0s
     0     0 -797.42998    0   10          - -797.42998      -     -    0s
     0     0 -797.40831    0   11          - -797.40831      -     -    0s
     0     0 -797.39454    0    9          - -797.39454      -     -    0s
     0     0 -797.36868    0   10          - -797.36868      -     -    0s
     0     0 -797.35265    0   10          - -797.35265      -     -    0s
     0     0 -797.34603    0   11          - -797.34603      -     -    0s
     0     0 -797.33137    0   10          - -797.33137      -     -    0s
     0     0 -797.31560    0   10          - -797.31560      -     -    0s
     0     0 -797.30186    0   10          - -797.30186      -     -    0s
     0     0 -797.29701    0   10          - -797.29701      -     -    0s
     0     0 -797.27094    0   10          - -797.27094      -     -    0s
     0     0 -797.25471    0   10          - -797.25471      -     -    0s
     0     0 -797.22418    0   10          - -797.22418      -     -    0s
     0     0 -797.20516    0    8          - -797.20516      -     -    0s
     0     0 -797.19705    0   10          - -797.19705      -     -    0s
     0     0 -797.18732    0    9          - -797.18732      -     -    0s
     0     0 -797.18379    0   10          - -797.18379      -     -    0s
     0     0 -797.17609    0    9          - -797.17609      -     -    0s
     0     0 -797.15878    0   10          - -797.15878      -     -    0s
     0     0 -797.15399    0   10          - -797.15399      -     -    1s
     0     0 -797.15261    0   10          - -797.15261      -     -    1s
     0     0 -797.12906    0    9          - -797.12906      -     -    1s
     0     0 -797.12713    0    9          - -797.12713      -     -    1s
     0     0 -797.10364    0    9          - -797.10364      -     -    1s
     0     0 -797.10050    0    9          - -797.10050      -     -    1s
     0     0 -797.09799    0   10          - -797.09799      -     -    1s
     0     0 -797.07300    0    9          - -797.07300      -     -    1s
     0     0 -797.06072    0    8          - -797.06072      -     -    1s
     0     0 -797.05331    0    9          - -797.05331      -     -    1s
     0     0 -797.03967    0    7          - -797.03967      -     -    1s
     0     0 -797.03420    0   11          - -797.03420      -     -    1s
     0     0 -797.03077    0   10          - -797.03077      -     -    1s
     0     0 -797.01885    0   10          - -797.01885      -     -    1s
     0     0 -797.01446    0   11          - -797.01446      -     -    1s
     0     0 -797.00257    0   10          - -797.00257      -     -    1s
     0     0 -797.00171    0   10          - -797.00171      -     -    1s
     0     0 -796.99589    0    9          - -796.99589      -     -    1s
     0     0 -796.99573    0   10          - -796.99573      -     -    1s
     0     0 -796.99298    0    9          - -796.99298      -     -    1s
     0     0 -796.98561    0    9          - -796.98561      -     -    1s
     0     0 -796.98501    0   10          - -796.98501      -     -    1s
     0     0 -796.98318    0    9          - -796.98318      -     -    1s
     0     0 -796.97984    0   10          - -796.97984      -     -    1s
     0     0 -796.97573    0   12          - -796.97573      -     -    1s
     0     0 -796.95384    0   10          - -796.95384      -     -    1s
     0     0 -796.94289    0   11          - -796.94289      -     -    1s
     0     0 -796.93491    0   11          - -796.93491      -     -    1s
     0     0 -796.93393    0   12          - -796.93393      -     -    1s
     0     0 -796.92170    0   12          - -796.92170      -     -    1s
     0     0 -796.91423    0   11          - -796.91423      -     -    1s
     0     0 -796.90953    0   11          - -796.90953      -     -    1s
     0     0 -796.90370    0   10          - -796.90370      -     -    1s
     0     0 -796.89978    0   11          - -796.89978      -     -    1s
     0     0 -796.89297    0    7          - -796.89297      -     -    1s
     0     0 -796.89059    0    8          - -796.89059      -     -    1s
     0     0 -796.86778    0    7          - -796.86778      -     -    1s
     0     0 -796.86682    0    9          - -796.86682      -     -    1s
     0     0 -796.86421    0    9          - -796.86421      -     -    1s
     0     0 -796.86338    0    9          - -796.86338      -     -    1s
     0     0 -796.85076    0    9          - -796.85076      -     -    1s
     0     0 -796.85029    0    8          - -796.85029      -     -    1s
     0     0 -796.84443    0    9          - -796.84443      -     -    1s
     0     0 -796.84388    0   10          - -796.84388      -     -    1s
     0     0 -796.83929    0    8          - -796.83929      -     -    1s
     0     0 -796.83607    0    8          - -796.83607      -     -    1s
     0     0 -796.83541    0    9          - -796.83541      -     -    1s
     0     0 -796.83538    0   10          - -796.83538      -     -    1s
     0     0 -796.78417    0    9          - -796.78417      -     -    1s
     0     0 -796.76290    0    6          - -796.76290      -     -    1s
     0     0 -796.75207    0    7          - -796.75207      -     -    1s
     0     0 -796.72701    0    7          - -796.72701      -     -    1s
     0     0 -796.69489    0    6          - -796.69489      -     -    1s
     0     0 -796.66420    0    9          - -796.66420      -     -    1s
     0     0 -796.64619    0    7          - -796.64619      -     -    1s
     0     0 -796.63672    0    6          - -796.63672      -     -    1s
     0     0 -796.63111    0    7          - -796.63111      -     -    1s
     0     0 -796.62907    0    8          - -796.62907      -     -    1s
     0     0 -796.61252    0    8          - -796.61252      -     -    1s
     0     0 -796.59698    0    6          - -796.59698      -     -    1s
     0     0 -796.57882    0    9          - -796.57882      -     -    1s
     0     0 -796.56116    0    8          - -796.56116      -     -    1s
     0     0 -796.54580    0    7          - -796.54580      -     -    1s
     0     0 -796.53755    0    7          - -796.53755      -     -    1s
     0     0 -796.53227    0    7          - -796.53227      -     -    1s
     0     0 -796.52233    0    7          - -796.52233      -     -    1s
     0     0 -796.51275    0    7          - -796.51275      -     -    1s
     0     0 -796.50115    0    6          - -796.50115      -     -    1s
     0     0 -796.49350    0    5          - -796.49350      -     -    1s
     0     0 -796.48362    0    8          - -796.48362      -     -    1s
     0     0 -796.48123    0    8          - -796.48123      -     -    1s
     0     0 -796.47300    0    7          - -796.47300      -     -    1s
     0     0 -796.47221    0    8          - -796.47221      -     -    1s
     0     0 -796.46347    0    6          - -796.46347      -     -    1s
     0     0 -796.45016    0    5          - -796.45016      -     -    1s
     0     0 -796.44841    0    7          - -796.44841      -     -    1s
     0     0 -796.44007    0    6          - -796.44007      -     -    1s
     0     0 -796.43793    0    8          - -796.43793      -     -    1s
     0     0 -796.42432    0    8          - -796.42432      -     -    1s
     0     0 -796.42099    0    8          - -796.42099      -     -    1s
     0     0 -796.42026    0    7          - -796.42026      -     -    1s
     0     0 -796.41792    0    9          - -796.41792      -     -    1s
     0     0 -796.41661    0    7          - -796.41661      -     -    1s
     0     0 -796.41291    0    7          - -796.41291      -     -    1s
     0     0 -796.41219    0    7          - -796.41219      -     -    1s
     0     0 -796.40950    0    6          - -796.40950      -     -    1s
     0     0 -796.40949    0    6          - -796.40949      -     -    1s
     0     0 -796.40833    0    5          - -796.40833      -     -    1s
     0     0 -796.40810    0    6          - -796.40810      -     -    1s
     0     0 -796.40531    0    4          - -796.40531      -     -    1s
     0     0 -796.40517    0    6          - -796.40517      -     -    1s
     0     0 -796.40517    0    6          - -796.40517      -     -    1s
     0     2 -796.40517    0    6          - -796.40517      -     -    1s
    20    17 -791.50833    9   11          - -796.02174      -  60.0    6s
    40    36 -786.62366   16    9          - -796.02174      -  64.2   11s
    56    48 -744.23870   20    -          - -796.02174      -  71.0   15s
    72    57 -747.04951   28    2          - -796.02174      -  68.1   23s
    75    58 -735.13504   30    -          - -795.65422      -  67.7   26s
*   79    61              30    14490.494676 -795.65422   105%  71.1   27s
*   83    59              30    -533.1699862 -795.16305  49.1%  73.6   30s
    92    64 -756.52570    5    6 -533.16999 -795.16305  49.1%  73.1   36s
    97    66 -756.02948    7    4 -533.16999 -795.16305  49.1%  71.4   40s
   105    74 -564.19873   28    2 -533.16999 -795.16305  49.1%  71.3   45s
   113    71 -753.27688   11    - -533.16999 -795.16305  49.1%  72.4   50s
   120    78 -660.30710   27    - -533.16999 -795.16305  49.1%  72.1   56s
   131    79 -745.39821   17    - -533.16999 -795.16305  49.1%  74.1   61s
   144    88     cutoff   29      -533.16999 -795.16305  49.1%  74.1   65s
   153    93 -681.98560   24    - -533.16999 -795.16305  49.1%  73.9   72s
   160    93 -687.43186   23    - -533.16999 -795.16305  49.1%  74.2   75s
   170   100 -681.73861   23    - -533.16999 -795.16305  49.1%  73.2   81s
   179   104 -666.92313   28    - -533.16999 -795.16305  49.1%  72.8   86s
   185   109 -729.82032   28    - -533.16999 -795.16305  49.1%  73.6   90s
   193   109 -659.35096   28    - -533.16999 -795.16305  49.1%  73.5   97s
   199   112 -589.43946   28    - -533.16999 -795.16305  49.1%  73.3  102s
   202   117 -547.78768   28    2 -533.16999 -795.16305  49.1%  74.1  105s
   208   116 -685.78790   22    - -533.16999 -795.16305  49.1%  74.4  111s
   215   118 -664.46752   23    - -533.16999 -795.16305  49.1%  74.3  118s
   220   121 -586.49419   27    - -533.16999 -795.16305  49.1%  74.8  121s
   224   118 -585.97329   27    - -533.16999 -795.16305  49.1%  74.7  126s
   227   121 -669.18640   21    - -533.16999 -795.16305  49.1%  74.6  131s
   234   120 -547.13506   27    3 -533.16999 -795.16305  49.1%  75.5  137s
   238   127 -551.74563   28    2 -533.16999 -795.16305  49.1%  75.5  141s
   249   129 -752.99588    6    5 -533.16999 -794.15667  48.9%  75.9  145s
   257   128 -662.12890   24    - -533.16999 -794.15667  48.9%  75.0  150s
   261   131 -748.58154   11    - -533.16999 -794.15667  48.9%  74.5  156s
   268   135 -748.48293   14    - -533.16999 -794.15667  48.9%  73.7  161s
   276   139 -657.02785   24    - -533.16999 -794.15667  48.9%  73.7  166s
   287   146 -661.62157   16    5 -533.16999 -794.15667  48.9%  74.0  174s
   290   146 -703.35634   15    1 -533.16999 -794.15667  48.9%  74.5  176s
   298   151 -660.64259   27    - -533.16999 -794.15667  48.9%  74.9  182s
   304   146 -681.58836   20    - -533.16999 -794.15667  48.9%  75.1  188s
   311   149 -670.43580   20    - -533.16999 -794.15667  48.9%  74.8  191s
   316   151 -588.06770   28    - -533.16999 -794.15667  48.9%  75.0  195s
   326   151 -729.40281   24    - -533.16999 -794.15667  48.9%  75.5  201s
   336   156 -673.17877   24    - -533.16999 -792.40524  48.6%  75.7  209s
   342   155 -667.12644   24    - -533.16999 -792.40524  48.6%  75.5  216s
   351   159 -661.92779   24    - -533.16999 -792.40524  48.6%  75.0  225s
   361   164 -658.39028   24    - -533.16999 -792.40524  48.6%  74.3  235s
   369   165 -680.00633   28    - -533.16999 -792.40524  48.6%  73.8  243s
   374   170 -675.93447   28    - -533.16999 -792.40524  48.6%  74.1  248s
   380   173 -619.26782   28    - -533.16999 -792.40524  48.6%  74.0  255s
   387   168 -664.46349   27    - -533.16999 -792.40524  48.6%  74.3  265s
   396   176 -641.00272   27    3 -533.16999 -792.40524  48.6%  74.0  272s
   402   172 -661.86396   26    - -533.16999 -792.40524  48.6%  73.7  279s
   411   182 -648.35621   26    4 -533.16999 -792.40524  48.6%  73.2  290s
   416   183 -533.42169   26    - -533.16999 -792.40524  48.6%  73.2  297s
   418   181 -603.95025   28    - -533.16999 -792.40524  48.6%  73.5  300s
   422   185 -534.17976   27    - -533.16999 -792.40524  48.6%  74.1  305s
   428   180 -547.46296   28    - -533.16999 -792.40524  48.6%  74.3  312s
   433   178     cutoff   28      -533.16999 -792.16694  48.6%  74.8  316s
   443   178 -745.56325   10    - -533.16999 -791.31296  48.4%  74.6  322s
   450   178 -745.37120   12    - -533.16999 -791.31296  48.4%  74.6  327s
   455   183 -745.35062   12    - -533.16999 -791.31296  48.4%  74.1  332s
   462   179 -706.05050   14    3 -533.16999 -790.16402  48.2%  73.9  339s
   470   186 -743.93363   14    2 -533.16999 -788.79967  47.9%  73.3  346s
   477   185 -665.50312   15    2 -533.16999 -788.11692  47.8%  73.1  354s
   490   193 -693.08877   17    - -533.16999 -788.11692  47.8%  72.5  372s
   495   195 -687.91785   17    4 -533.16999 -788.11692  47.8%  72.6  378s
   501   198 -687.32159   19    - -533.16999 -788.11692  47.8%  72.1  383s
   506   203 -718.57987   20    - -533.16999 -788.11692  47.8%  71.7  386s
   510   204 -684.78132   22    - -533.16999 -787.54331  47.7%  71.6  395s
   521   208 -681.80905   22    6 -533.16999 -787.54331  47.7%  71.6  401s
   527   213 -680.21620   24    5 -533.16999 -787.54331  47.7%  71.4  409s
   534   218 -676.31453   26    4 -533.16999 -787.54331  47.7%  71.2  415s
   540   218 -639.62540   28    - -533.16999 -787.54331  47.7%  71.4  421s
*  543   219              30    -534.4399845 -787.54331  47.4%  71.4  424s
   546   218 -600.90218   28    2 -534.43998 -787.54331  47.4%  71.8  427s
   550   220 -629.01840   28    - -534.43998 -787.54331  47.4%  72.0  430s
   562   219 -740.25730   16    3 -534.43998 -780.11915  46.0%  72.9  436s
   583   229 -733.62935   21    5 -534.43998 -778.68640  45.7%  71.9  452s
   590   229 -730.53488   24    2 -534.43998 -778.61915  45.7%  71.8  457s
   605   236 -692.09112   25    3 -534.43998 -778.61915  45.7%  71.0  478s
   616   240 -670.25268   27    - -534.43998 -778.61915  45.7%  70.8  493s
   626   238 -662.21471   27    - -534.43998 -778.61915  45.7%  70.6  508s
   638   241 -653.34802   28    2 -534.43998 -778.61915  45.7%  70.5  523s
   651   250 -543.21998   30    - -534.43998 -774.53396  44.9%  71.0  535s
   665   249     cutoff   30      -534.43998 -774.53333  44.9%  71.4  544s
   669   251 -627.32787   25    - -534.43998 -774.53333  44.9%  71.5  546s
   672   250 -731.81241   24    6 -534.43998 -774.53333  44.9%  71.6  550s
   678   255 -727.10866   25    5 -534.43998 -774.53333  44.9%  71.6  555s
   685   256 -686.64316   27    3 -534.43998 -774.53333  44.9%  71.7  560s
   691   253 -673.65786   28    2 -534.43998 -774.53333  44.9%  71.7  565s
*  704   248              30    -556.2049839 -763.43636  37.3%  72.4  577s
   724   248     cutoff   30      -556.20498 -759.83045  36.6%  72.8  590s
*  727   249              30    -556.8799848 -759.83045  36.4%  73.0  593s
   747   236     cutoff   30      -556.87998 -758.63405  36.2%  72.8  609s
   761   248     cutoff   30      -556.87998 -757.96484  36.1%  72.4  622s
*  765   249              30    -557.1249847 -757.96484  36.0%  72.6  625s
   775   246 -704.43795   14    3 -557.12498 -757.96484  36.0%  72.5  640s
   793   264 -698.58006   20    3 -557.12498 -757.78214  36.0%  72.0  652s
   817   275 -637.24349   24    - -557.12498 -756.23635  35.7%  71.5  675s
   840   287 -673.78268    9    2 -557.12498 -755.79931  35.7%  70.9  696s
   856   294 -632.77201    9    3 -557.12498 -755.79931  35.7%  70.6  711s
   873   306 -664.45761   13    1 -557.12498 -755.79931  35.7%  70.2  728s
   887   314 -707.89574   18    - -557.12498 -755.79931  35.7%  69.9  744s
   892   319 -714.43788    9    2 -557.12498 -755.79931  35.7%  70.0  747s
   904   322 -655.28373   18    3 -557.12498 -755.79931  35.7%  69.9  759s
   920   331 -645.02852   23    - -557.12498 -754.36715  35.4%  69.8  775s
   931   339 -658.21628   15    3 -557.12498 -754.36715  35.4%  69.6  786s
   939   338 -716.61881    6    5 -557.12498 -753.77597  35.3%  69.4  794s
   970   355 -671.86480   11    3 -557.12498 -753.77597  35.3%  68.8  819s
   981   367 -657.12082   16    2 -557.12498 -753.77597  35.3%  68.9  827s
  1002   370 -651.20377   20    3 -557.12498 -753.50345  35.2%  68.5  846s
  1012   380 -625.40489   28    - -557.12498 -753.40304  35.2%  68.3  856s
  1017   384 -626.43984   24    - -557.12498 -753.40304  35.2%  68.6  865s
  1028   388 -693.10926   26    2 -557.12498 -752.96086  35.2%  68.7  874s
  1041   393 -622.17199   27    - -557.12498 -752.56626  35.1%  68.8  888s
  1044   400 -627.11667   28    2 -557.12498 -752.56626  35.1%  69.2  892s
  1058   399     cutoff   30      -557.12498 -752.38909  35.0%  69.0  902s
  1072   405 -712.60912    8    3 -557.12498 -752.38909  35.0%  68.9  916s
  1100   412 -673.15772   10    1 -557.12498 -752.38909  35.0%  68.5  941s
  1107   425 -697.42683   23    - -557.12498 -752.38909  35.0%  68.3  946s
  1118   422 -693.67470   22    - -557.12498 -751.61363  34.9%  68.1  962s
  1127   431 -692.89135   24    4 -557.12498 -751.48240  34.9%  68.2  969s
  1136   434 -620.94996   24    - -557.12498 -751.48240  34.9%  68.1  982s
  1145   439 -688.75821   27    2 -557.12498 -751.43344  34.9%  68.2  997s
  1156   448 -563.23392   28    2 -557.12498 -751.08681  34.8%  68.3 1009s
  1162   443 -616.20428   28    - -557.12498 -751.08681  34.8%  68.4 1019s
  1167   446 -615.79692   29    - -557.12498 -750.94375  34.8%  68.7 1029s
  1189   447     cutoff   29      -557.12498 -750.94375  34.8%  68.5 1046s
  1212   457 -666.42646   13    1 -557.12498 -750.58178  34.7%  68.1 1070s
  1236   474 -638.60259   19    2 -557.12498 -750.48502  34.7%  68.0 1085s
  1253   484 -635.26911   22    - -557.12498 -750.47756  34.7%  68.0 1107s
  1264   494 -620.99362   28    2 -557.12498 -750.47756  34.7%  68.0 1116s
  1268   487 -681.31473   25    2 -557.12498 -750.28267  34.7%  68.0 1126s
  1295   492 -663.17561   26    4 -557.12498 -750.26914  34.7%  67.8 1158s
  1313   507 -613.37214   28    - -557.12498 -750.26914  34.7%  67.6 1179s
  1318   511 -605.85364   27    - -557.12498 -750.26914  34.7%  67.7 1184s
  1330   513     cutoff   29      -557.12498 -749.99742  34.6%  67.6 1196s
  1346   523 -576.13452   27    3 -557.12498 -749.99742  34.6%  67.5 1206s
  1348   528     cutoff   28      -557.12498 -749.96405  34.6%  67.5 1215s
  1365   539     cutoff   28      -557.12498 -749.94994  34.6%  67.2 1225s
  1380   532 -702.86861   16    2 -557.12498 -749.94994  34.6%  66.9 1239s
  1395   545 -619.89509   24    - -557.12498 -749.48359  34.5%  67.0 1257s
  1415   559 -698.54549   20    4 -557.12498 -749.33101  34.5%  66.7 1271s
  1424   555 -686.58422   27    - -557.12498 -749.30496  34.5%  66.7 1289s
  1434   571 -692.20952   24    5 -557.12498 -749.30496  34.5%  66.8 1297s
  1440   569     cutoff   28      -557.12498 -749.30496  34.5%  66.7 1307s
  1452   575 -619.42689   29    - -557.12498 -749.24137  34.5%  67.0 1323s
  1460   580 -739.90852   22    - -557.12498 -749.24137  34.5%  67.0 1328s
  1467   577 -708.03952   21    - -557.12498 -749.13559  34.5%  66.9 1339s
  1485   591 -706.19819   22    3 -557.12498 -749.06989  34.5%  66.8 1349s
  1500   589     cutoff   30      -557.12498 -749.03984  34.4%  66.9 1367s
  1529   596     cutoff   29      -557.12498 -748.58154  34.4%  66.8 1397s
  1536   606     cutoff   29      -557.12498 -748.34084  34.3%  66.9 1402s
  1552   607     cutoff   28      -557.12498 -748.19475  34.3%  66.9 1420s
  1578   623 -691.35344   16    - -557.12498 -747.05271  34.1%  66.7 1450s
  1595   640 -692.77085   22    - -557.12498 -747.04573  34.1%  66.5 1459s
  1605   631 -694.84728   24    - -557.12498 -747.03978  34.1%  66.4 1480s
  1631   639 -690.93332   24    4 -557.12498 -746.61338  34.0%  66.4 1511s
  1639   654 -618.09484   29    - -557.12498 -746.61338  34.0%  66.3 1518s
  1654   650 -685.79009   29    - -557.12498 -745.77068  33.9%  66.1 1548s
  1672   660 -621.90972   29    - -557.12498 -745.22669  33.8%  66.3 1571s
  1688   672     cutoff   29      -557.12498 -745.08478  33.7%  66.2 1590s
  1695   677 -697.04172   14    2 -557.12498 -744.74638  33.7%  66.3 1603s
  1717   686 -610.86549   24    - -557.12498 -744.54450  33.6%  66.1 1626s
  1729   695 -611.05070   28    2 -557.12498 -744.04779  33.6%  66.2 1642s
  1740   698     cutoff   29      -557.12498 -744.02613  33.5%  66.4 1653s
  1751   710     cutoff   28      -557.12498 -743.77680  33.5%  66.6 1673s
  1763   701 -703.32712   13    2 -557.12498 -743.37869  33.4%  67.0 1688s
  1785   716     cutoff   29      -557.12498 -743.05268  33.4%  66.8 1706s
  1803   707 -687.07347   25    3 -557.12498 -742.92667  33.4%  66.8 1727s
  1811   723 -561.01498   30    - -557.12498 -742.39664  33.3%  66.7 1735s
  1819   722 -622.83849   28    2 -557.12498 -741.16014  33.0%  66.8 1749s
  1835   734     cutoff   30      -557.12498 -741.06373  33.0%  66.8 1764s
  1840   728     cutoff   29      -557.12498 -740.55493  32.9%  66.8 1774s
  1861   741     cutoff   28      -557.12498 -740.21365  32.9%  66.7 1798s
  1883   747 -579.16276   27    3 -557.12498 -739.90614  32.8%  66.5 1824s
  1895   764 -735.30716   17    8 -557.12498 -739.90614  32.8%  66.7 1835s
  1904   768 -728.96984   20    8 -557.12498 -739.90614  32.8%  66.9 1847s
  1914   770 -721.05458   25    5 -557.12498 -739.90614  32.8%  66.9 1857s
  1938   780     cutoff   30      -557.12498 -739.66604  32.8%  67.1 1877s
  1950   783     cutoff   30      -557.12498 -739.53039  32.7%  67.3 1881s
  1958   771     cutoff   30      -557.12498 -739.29705  32.7%  67.4 1897s
  1970   780     cutoff   30      -557.12498 -739.22108  32.7%  67.4 1907s
  1982   777 -654.37607   22    - -557.12498 -739.14053  32.7%  67.3 1932s
  2010   788 -686.58672   23    5 -557.12498 -738.86583  32.6%  67.0 1966s
  2021   804 -668.08486   27    - -557.12498 -738.71711  32.6%  66.9 1977s
  2029   802 -658.84699   27    3 -557.12498 -738.71711  32.6%  67.0 1997s
  2058   796     cutoff   28      -557.12498 -738.64975  32.6%  67.0 2038s
  2095   802     cutoff   28      -557.12498 -738.09720  32.5%  66.6 2085s
  2108   815 -698.40533   20    2 -557.12498 -738.09720  32.5%  66.4 2097s
  2119   817 -658.64653   20    2 -557.12498 -737.71064  32.4%  66.4 2129s
  2149   832 -665.37930   26    - -557.12498 -737.51029  32.4%  66.0 2175s
  2165   843 -662.26453   26    - -557.12498 -737.46487  32.4%  66.3 2194s
  2173   853     cutoff   30      -557.12498 -737.46487  32.4%  66.4 2200s
  2191   846 -594.27849   27    - -557.12498 -737.36288  32.4%  66.6 2225s
* 2204   856              30    -559.7899847 -737.19116  31.7%  66.9 2235s
* 2211   857              30    -574.1399843 -737.19116  28.4%  66.9 2239s
  2226   839 -684.95603   21    - -574.13998 -736.72069  28.3%  67.0 2267s
  2255   849 -670.28752   26    - -574.13998 -735.77439  28.2%  67.1 2315s
  2286   864 -698.46834   26    - -574.13998 -735.41492  28.1%  66.8 2351s
  2301   884 -671.83336   23    - -574.13998 -735.37164  28.1%  66.8 2366s
  2310   878 -675.11060   28    - -574.13998 -735.36146  28.1%  66.8 2391s
  2325   893 -683.46994   28    - -574.13998 -735.31820  28.1%  66.9 2404s
  2334   887     cutoff   30      -574.13998 -735.29768  28.1%  67.1 2417s
  2357   894     cutoff   30      -574.13998 -734.76879  28.0%  67.3 2453s
  2389   898     cutoff   30      -574.13998 -734.54257  27.9%  67.4 2481s
  2414   902     cutoff   30      -574.13998 -734.38672  27.9%  67.4 2523s
  2441   929 -700.05156   28    2 -574.13998 -733.77392  27.8%  67.2 2545s
  2461   915     cutoff   30      -574.13998 -733.55330  27.8%  67.2 2573s
  2485   926 -631.97528   28    - -574.13998 -731.61634  27.4%  67.3 2618s
  2517   933 -627.32167   28    - -574.13998 -730.88181  27.3%  67.3 2670s
  2541   954     cutoff   30      -574.13998 -730.12110  27.2%  67.1 2691s
  2556   948     cutoff   28      -574.13998 -730.12110  27.2%  67.3 2720s
  2564   961     cutoff   30      -574.13998 -730.12110  27.2%  67.4 2728s
  2584   955     cutoff   28      -574.13998 -729.33450  27.0%  67.3 2758s
  2599   962     cutoff   30      -574.13998 -728.93133  27.0%  67.3 2775s
  2620   952     cutoff   28      -574.13998 -728.82850  26.9%  67.2 2819s
  2637   969     cutoff   30      -574.13998 -728.52524  26.9%  67.0 2838s
  2657   966 -635.19115   26    - -574.13998 -728.52524  26.9%  66.9 2874s
  2668   980 -632.54674   28    - -574.13998 -728.52524  26.9%  67.1 2879s
  2684   978 -646.69369   29    - -574.13998 -727.60736  26.7%  67.2 2923s
  2702   988 -643.79028   29    - -574.13998 -726.11878  26.5%  67.3 2937s
  2720   981 -605.02998   30    - -574.13998 -725.16706  26.3%  67.3 2977s
  2750   989     cutoff   30      -574.13998 -724.99969  26.3%  67.3 3029s
  2771  1006     cutoff   29      -574.13998 -724.99969  26.3%  67.5 3039s
  2784  1001 -676.19600   21    - -574.13998 -724.42230  26.2%  67.4 3077s
  2795  1016 -669.48505   25    - -574.13998 -722.06184  25.8%  67.4 3087s
  2813  1010 -670.16368   27    - -574.13998 -721.32864  25.6%  67.4 3131s
  2845  1021 -694.56676   28    - -574.13998 -720.61960  25.5%  67.3 3179s
  2875  1042 -668.82541   29    1 -574.13998 -719.85521  25.4%  67.2 3194s
  2896  1033 -657.01587   28    2 -574.13998 -719.47198  25.3%  67.2 3250s
  2928  1065     cutoff   30      -574.13998 -718.37927  25.1%  67.0 3274s
  2945  1062 -677.03888    8    1 -574.13998 -718.37927  25.1%  66.9 3317s
  2997  1095 -632.66274    9    2 -574.13998 -718.28345  25.1%  66.8 3393s
  3036  1117 -659.02977   23    - -574.13998 -717.96982  25.1%  66.8 3458s
  3090  1138 -585.44460   25    5 -574.13998 -717.81850  25.0%  66.5 3525s
  3123  1165     cutoff   27      -574.13998 -717.63602  25.0%  66.5 3588s
  3151  1183     cutoff   29      -574.13998 -717.56403  25.0%  66.4 3607s
  3164  1179 -666.30232   19    3 -574.13998 -717.39701  25.0%  66.4 3649s
  3218  1196 -594.06034   22    - -574.13998 -717.14809  24.9%  66.3 3727s
  3277  1220 -638.86610   25    - -574.13998 -716.95859  24.9%  66.0 3817s
  3338  1259 -638.04265   25    - -574.13998 -716.72227  24.8%  66.0 3913s
  3381  1290 -629.34029   25    5 -574.13998 -716.64059  24.8%  65.9 3980s
  3405  1309 -632.78074   28    2 -574.13998 -716.62466  24.8%  65.9 3999s
  3419  1310     cutoff   28      -574.13998 -716.62121  24.8%  65.9 4053s
  3448  1335 -675.18559    9    2 -574.13998 -716.62121  24.8%  65.8 4069s
  3459  1340 -695.08075   24    5 -574.13998 -716.59118  24.8%  65.9 4114s
  3478  1362 -665.00622   14    2 -574.13998 -716.59118  24.8%  65.9 4123s
  3493  1360 -626.94688   28    - -574.13998 -716.56067  24.8%  65.9 4181s
  3547  1376 -574.38833   28    2 -574.13998 -716.30925  24.8%  65.9 4258s
  3573  1401     cutoff   29      -574.13998 -716.13067  24.7%  66.0 4279s
  3596  1412 -624.95822   13    1 -574.13998 -716.12410  24.7%  66.0 4340s
  3651  1455 -693.34069   23    6 -574.13998 -716.05758  24.7%  66.0 4553s
  3653  1456 -676.52081    9   22 -574.13998 -716.05758  24.7%  66.0 4740s
  3654  1457 -668.50359   14   22 -574.13998 -716.05758  24.7%  66.0 4750s
  3656  1461 -716.05758   15   22 -574.13998 -716.05758  24.7%  66.3 5168s
  3658  1463 -716.05758   16   22 -574.13998 -716.05758  24.7%  66.4 5241s
  3660  1464 -716.05758   16   14 -574.13998 -716.05758  24.7%  66.5 5341s
  3662  1465 -716.05758   17   22 -574.13998 -716.05758  24.7%  66.5 5493s
  3664  1465 -716.05758   17   17 -574.13998 -716.05758  24.7%  66.6 5624s
  3666  1466 -716.05758   18   21 -574.13998 -716.05758  24.7%  66.8 5796s
  3669  1467 -716.05758   18   17 -574.13998 -716.05758  24.7%  66.9 5924s
  3672  1468 -716.05758   19   20 -574.13998 -716.05758  24.7%  67.0 5988s
  3675  1471 -716.05758   19   16 -574.13998 -716.05758  24.7%  67.2 6039s
  3678  1472 -716.05758   20   22 -574.13998 -716.05758  24.7%  67.3 6103s
  3682  1476 -716.05758   20   13 -574.13998 -716.05758  24.7%  67.5 6142s
  3685  1475 -716.05758   21   21 -574.13998 -716.05758  24.7%  67.6 6215s
  3687  1477 -716.05758   21   17 -574.13998 -716.05758  24.7%  67.7 6290s
  3692  1480 -716.05758   22   22 -574.13998 -716.05758  24.7%  67.9 6359s
  3696  1484 -716.05758   22   11 -574.13998 -716.05758  24.7%  68.1 6400s
  3698  1483 -716.05758   23   21 -574.13998 -716.05758  24.7%  68.2 6455s
  3701  1487 -716.05758   23   16 -574.13998 -716.05758  24.7%  68.3 6501s
  3704  1485 -716.05758   24   20 -574.13998 -716.05758  24.7%  68.5 6563s
  3709  1492 -716.05758   24   14 -574.13998 -716.05758  24.7%  68.6 6652s
  3715  1496 -716.05758   25   14 -574.13998 -716.05758  24.7%  68.9 6702s
  3724  1494 -716.05758   26    7 -574.13998 -716.05758  24.7%  69.0 6746s
  3733  1501 -716.05758   27   15 -574.13998 -716.05758  24.7%  69.3 6803s
  3743  1501 -716.05758   28   14 -574.13998 -716.05758  24.7%  69.5 6864s
  3745  1503 -617.41075   43    - -574.13998 -716.05758  24.7%  69.5 6866s
  3752  1504 -716.05758   29    8 -574.13998 -716.05758  24.7%  69.7 6929s
  3761  1506 -716.05758   31   13 -574.13998 -716.05758  24.7%  69.9 6980s
  3772  1510 -713.85146   32   10 -574.13998 -716.05758  24.7%  70.3 7039s
  3781  1516 -716.05758   33   11 -574.13998 -716.05758  24.7%  70.6 7095s
  3792  1519 -716.05758   35    9 -574.13998 -716.05758  24.7%  70.8 7143s
  3810  1522 -716.05758   37    7 -574.13998 -716.05758  24.7%  71.1 7183s

Cutting planes:
  Lazy constraints: 10800

Explored 3819 nodes (274364 simplex iterations) in 7190.75 seconds
Thread count was 4 (of 4 available processors)

Solution count 8: -574.14 -559.79 -557.125 ... 14490.5

Time limit reached
Best objective -5.741399843283e+02, best bound -7.160575764245e+02, gap 24.7183%
